WARNING: for repeatability, setting FPU to use double precision
============================[ Problem Statistics ]=============================
|                                                                             |
|  Number of variables:           100                                         |
|  Number of clauses:             449                                         |
|  Parse time:                   0.00 s                                       |
|  Eliminated clauses:           0.00 Mb                                      |
|  Simplification time:          0.00 s                                       |
|                                                                             |
============================[ Search Statistics ]==============================
| Conflicts |          ORIGINAL         |          LEARNT          | Progress |
|           |    Vars  Clauses Literals |    Limit  Clauses Lit/Cl |          |
===============================================================================
|       100 |      97      442     1347 |      162      100      8 |  0.010 % |
===============================================================================
restarts              : 3
conflicts             : 202            (inf /sec)
decisions             : 264            (0.00 % random) (inf /sec)
propagations          : 4774           (inf /sec)
conflict literals     : 1536           (15.70 % deleted)
Memory used           : 13.00 MB
CPU time              : 0 s

SATISFIABLE
